c CNF file generated from BLIF2CNF script.
c Original BLIF file was blif/vg2.blif
p cnf 143 1032
1 -10 0
3 -10 0
4 -10 0
10 -1 -3 -4  0
-10 9 0
2 -11 0
3 -11 0
4 -11 0
11 -2 -3 -4  0
-11 9 0
-1 -12 0
-2 -12 0
8 -12 0
12 1 2 -8  0
-12 9 0
-3 -13 0
-5 -13 0
-6 -13 0
7 -13 0
13 3 5 6 -7  0
-13 9 0
1 -14 0
2 -14 0
-3 -14 0
8 -14 0
14 -1 -2 3 -8  0
-14 9 0
-9 10 11 12 13 14  0
1 -19 0
3 -19 0
15 -19 0
19 -1 -3 -15  0
-19 18 0
2 -20 0
3 -20 0
15 -20 0
20 -2 -3 -15  0
-20 18 0
-1 -21 0
-2 -21 0
17 -21 0
21 1 2 -17  0
-21 18 0
-3 -22 0
-5 -22 0
-6 -22 0
16 -22 0
22 3 5 6 -16  0
-22 18 0
1 -23 0
2 -23 0
-3 -23 0
17 -23 0
23 -1 -2 3 -17  0
-23 18 0
-18 19 20 21 22 23  0
1 -32 0
3 -32 0
4 -32 0
24 -32 0
25 -32 0
26 -32 0
27 -32 0
28 -32 0
29 -32 0
30 -32 0
32 -1 -3 -4 -24 -25 -26 -27 -28 -29 -30  0
-32 31 0
2 -33 0
3 -33 0
4 -33 0
24 -33 0
25 -33 0
26 -33 0
27 -33 0
28 -33 0
29 -33 0
30 -33 0
33 -2 -3 -4 -24 -25 -26 -27 -28 -29 -30  0
-33 31 0
-1 -34 0
-2 -34 0
8 -34 0
24 -34 0
25 -34 0
26 -34 0
27 -34 0
28 -34 0
29 -34 0
30 -34 0
34 1 2 -8 -24 -25 -26 -27 -28 -29 -30  0
-34 31 0
1 -35 0
3 -35 0
15 -35 0
-24 -35 0
-25 -35 0
-26 -35 0
-27 -35 0
-28 -35 0
-29 -35 0
-30 -35 0
35 -1 -3 -15 24 25 26 27 28 29 30  0
-35 31 0
2 -36 0
3 -36 0
15 -36 0
-24 -36 0
-25 -36 0
-26 -36 0
-27 -36 0
-28 -36 0
-29 -36 0
-30 -36 0
36 -2 -3 -15 24 25 26 27 28 29 30  0
-36 31 0
-1 -37 0
-2 -37 0
17 -37 0
-24 -37 0
-25 -37 0
-26 -37 0
-27 -37 0
-28 -37 0
-29 -37 0
-30 -37 0
37 1 2 -17 24 25 26 27 28 29 30  0
-37 31 0
-3 -38 0
-5 -38 0
-6 -38 0
7 -38 0
24 -38 0
25 -38 0
26 -38 0
27 -38 0
28 -38 0
29 -38 0
30 -38 0
38 3 5 6 -7 -24 -25 -26 -27 -28 -29 -30  0
-38 31 0
1 -39 0
2 -39 0
-3 -39 0
8 -39 0
24 -39 0
25 -39 0
26 -39 0
27 -39 0
28 -39 0
29 -39 0
30 -39 0
39 -1 -2 3 -8 -24 -25 -26 -27 -28 -29 -30  0
-39 31 0
-3 -40 0
-5 -40 0
-6 -40 0
16 -40 0
-24 -40 0
-25 -40 0
-26 -40 0
-27 -40 0
-28 -40 0
-29 -40 0
-30 -40 0
40 3 5 6 -16 24 25 26 27 28 29 30  0
-40 31 0
1 -41 0
2 -41 0
-3 -41 0
17 -41 0
-24 -41 0
-25 -41 0
-26 -41 0
-27 -41 0
-28 -41 0
-29 -41 0
-30 -41 0
41 -1 -2 3 -17 24 25 26 27 28 29 30  0
-41 31 0
-31 32 33 34 35 36 37 38 39 40 41  0
1 -50 0
3 -50 0
4 -50 0
24 -50 0
25 -50 0
42 -50 0
43 -50 0
26 -50 0
27 -50 0
28 -50 0
29 -50 0
30 -50 0
44 -50 0
45 -50 0
46 -50 0
47 -50 0
48 -50 0
50 -1 -3 -4 -24 -25 -42 -43 -26 -27 -28 -29 -30 -44 -45 -46 -47 -48  0
-50 49 0
2 -51 0
3 -51 0
4 -51 0
24 -51 0
25 -51 0
42 -51 0
43 -51 0
26 -51 0
27 -51 0
28 -51 0
29 -51 0
30 -51 0
44 -51 0
45 -51 0
46 -51 0
47 -51 0
48 -51 0
51 -2 -3 -4 -24 -25 -42 -43 -26 -27 -28 -29 -30 -44 -45 -46 -47 -48  0
-51 49 0
-1 -52 0
-2 -52 0
8 -52 0
24 -52 0
25 -52 0
42 -52 0
43 -52 0
26 -52 0
27 -52 0
28 -52 0
29 -52 0
30 -52 0
44 -52 0
45 -52 0
46 -52 0
47 -52 0
48 -52 0
52 1 2 -8 -24 -25 -42 -43 -26 -27 -28 -29 -30 -44 -45 -46 -47 -48  0
-52 49 0
1 -53 0
3 -53 0
15 -53 0
-24 -53 0
-25 -53 0
-42 -53 0
-43 -53 0
-26 -53 0
-27 -53 0
-28 -53 0
-29 -53 0
-30 -53 0
-44 -53 0
-45 -53 0
-46 -53 0
-47 -53 0
-48 -53 0
53 -1 -3 -15 24 25 42 43 26 27 28 29 30 44 45 46 47 48  0
-53 49 0
2 -54 0
3 -54 0
15 -54 0
-24 -54 0
-25 -54 0
-42 -54 0
-43 -54 0
-26 -54 0
-27 -54 0
-28 -54 0
-29 -54 0
-30 -54 0
-44 -54 0
-45 -54 0
-46 -54 0
-47 -54 0
-48 -54 0
54 -2 -3 -15 24 25 42 43 26 27 28 29 30 44 45 46 47 48  0
-54 49 0
-1 -55 0
-2 -55 0
17 -55 0
-24 -55 0
-25 -55 0
-42 -55 0
-43 -55 0
-26 -55 0
-27 -55 0
-28 -55 0
-29 -55 0
-30 -55 0
-44 -55 0
-45 -55 0
-46 -55 0
-47 -55 0
-48 -55 0
55 1 2 -17 24 25 42 43 26 27 28 29 30 44 45 46 47 48  0
-55 49 0
-3 -56 0
-5 -56 0
-6 -56 0
7 -56 0
24 -56 0
25 -56 0
42 -56 0
43 -56 0
26 -56 0
27 -56 0
28 -56 0
29 -56 0
30 -56 0
44 -56 0
45 -56 0
46 -56 0
47 -56 0
48 -56 0
56 3 5 6 -7 -24 -25 -42 -43 -26 -27 -28 -29 -30 -44 -45 -46 -47 -48  0
-56 49 0
1 -57 0
2 -57 0
-3 -57 0
8 -57 0
24 -57 0
25 -57 0
42 -57 0
43 -57 0
26 -57 0
27 -57 0
28 -57 0
29 -57 0
30 -57 0
44 -57 0
45 -57 0
46 -57 0
47 -57 0
48 -57 0
57 -1 -2 3 -8 -24 -25 -42 -43 -26 -27 -28 -29 -30 -44 -45 -46 -47 -48  0
-57 49 0
-3 -58 0
-5 -58 0
-6 -58 0
16 -58 0
-24 -58 0
-25 -58 0
-42 -58 0
-43 -58 0
-26 -58 0
-27 -58 0
-28 -58 0
-29 -58 0
-30 -58 0
-44 -58 0
-45 -58 0
-46 -58 0
-47 -58 0
-48 -58 0
58 3 5 6 -16 24 25 42 43 26 27 28 29 30 44 45 46 47 48  0
-58 49 0
1 -59 0
2 -59 0
-3 -59 0
17 -59 0
-24 -59 0
-25 -59 0
-42 -59 0
-43 -59 0
-26 -59 0
-27 -59 0
-28 -59 0
-29 -59 0
-30 -59 0
-44 -59 0
-45 -59 0
-46 -59 0
-47 -59 0
-48 -59 0
59 -1 -2 3 -17 24 25 42 43 26 27 28 29 30 44 45 46 47 48  0
-59 49 0
-49 50 51 52 53 54 55 56 57 58 59  0
1 -61 0
3 -61 0
15 -61 0
25 -61 0
61 -1 -3 -15 -25  0
-61 60 0
2 -62 0
3 -62 0
15 -62 0
25 -62 0
62 -2 -3 -15 -25  0
-62 60 0
-1 -63 0
-2 -63 0
17 -63 0
25 -63 0
63 1 2 -17 -25  0
-63 60 0
1 -64 0
3 -64 0
4 -64 0
-25 -64 0
64 -1 -3 -4 25  0
-64 60 0
2 -65 0
3 -65 0
4 -65 0
-25 -65 0
65 -2 -3 -4 25  0
-65 60 0
-1 -66 0
-2 -66 0
8 -66 0
-25 -66 0
66 1 2 -8 25  0
-66 60 0
-3 -67 0
-5 -67 0
-6 -67 0
16 -67 0
25 -67 0
67 3 5 6 -16 -25  0
-67 60 0
1 -68 0
2 -68 0
-3 -68 0
17 -68 0
25 -68 0
68 -1 -2 3 -17 -25  0
-68 60 0
-3 -69 0
-5 -69 0
-6 -69 0
7 -69 0
-25 -69 0
69 3 5 6 -7 25  0
-69 60 0
1 -70 0
2 -70 0
-3 -70 0
8 -70 0
-25 -70 0
70 -1 -2 3 -8 25  0
-70 60 0
1 -71 0
3 -71 0
15 -71 0
-24 -71 0
30 -71 0
71 -1 -3 -15 24 -30  0
-71 60 0
2 -72 0
3 -72 0
15 -72 0
-24 -72 0
30 -72 0
72 -2 -3 -15 24 -30  0
-72 60 0
-1 -73 0
-2 -73 0
17 -73 0
-24 -73 0
30 -73 0
73 1 2 -17 24 -30  0
-73 60 0
1 -74 0
3 -74 0
4 -74 0
24 -74 0
-30 -74 0
74 -1 -3 -4 -24 30  0
-74 60 0
2 -75 0
3 -75 0
4 -75 0
24 -75 0
-30 -75 0
75 -2 -3 -4 -24 30  0
-75 60 0
-1 -76 0
-2 -76 0
8 -76 0
24 -76 0
-30 -76 0
76 1 2 -8 -24 30  0
-76 60 0
1 -77 0
3 -77 0
4 -77 0
24 -77 0
-28 -77 0
29 -77 0
77 -1 -3 -4 -24 28 -29  0
-77 60 0
2 -78 0
3 -78 0
4 -78 0
24 -78 0
-28 -78 0
29 -78 0
78 -2 -3 -4 -24 28 -29  0
-78 60 0
-1 -79 0
-2 -79 0
8 -79 0
24 -79 0
-28 -79 0
29 -79 0
79 1 2 -8 -24 28 -29  0
-79 60 0
1 -80 0
3 -80 0
15 -80 0
-24 -80 0
28 -80 0
-29 -80 0
80 -1 -3 -15 24 -28 29  0
-80 60 0
2 -81 0
3 -81 0
15 -81 0
-24 -81 0
28 -81 0
-29 -81 0
81 -2 -3 -15 24 -28 29  0
-81 60 0
-1 -82 0
-2 -82 0
17 -82 0
-24 -82 0
28 -82 0
-29 -82 0
82 1 2 -17 24 -28 29  0
-82 60 0
-3 -83 0
-5 -83 0
-6 -83 0
16 -83 0
-24 -83 0
30 -83 0
83 3 5 6 -16 24 -30  0
-83 60 0
1 -84 0
2 -84 0
-3 -84 0
17 -84 0
-24 -84 0
30 -84 0
84 -1 -2 3 -17 24 -30  0
-84 60 0
-3 -85 0
-5 -85 0
-6 -85 0
7 -85 0
24 -85 0
-30 -85 0
85 3 5 6 -7 -24 30  0
-85 60 0
1 -86 0
2 -86 0
-3 -86 0
8 -86 0
24 -86 0
-30 -86 0
86 -1 -2 3 -8 -24 30  0
-86 60 0
-3 -87 0
-5 -87 0
-6 -87 0
7 -87 0
24 -87 0
-28 -87 0
29 -87 0
87 3 5 6 -7 -24 28 -29  0
-87 60 0
1 -88 0
2 -88 0
-3 -88 0
8 -88 0
24 -88 0
-28 -88 0
29 -88 0
88 -1 -2 3 -8 -24 28 -29  0
-88 60 0
-3 -89 0
-5 -89 0
-6 -89 0
16 -89 0
-24 -89 0
28 -89 0
-29 -89 0
89 3 5 6 -16 24 -28 29  0
-89 60 0
1 -90 0
2 -90 0
-3 -90 0
17 -90 0
-24 -90 0
28 -90 0
-29 -90 0
90 -1 -2 3 -17 24 -28 29  0
-90 60 0
-60 61 62 63 64 65 66 67 68 69 70 71 72 73 74 75 76 77 78 79 80 81 82 83 84 85 86 87 88 89 90  0
1 -92 0
3 -92 0
15 -92 0
26 -92 0
92 -1 -3 -15 -26  0
-92 91 0
2 -93 0
3 -93 0
15 -93 0
26 -93 0
93 -2 -3 -15 -26  0
-93 91 0
-1 -94 0
-2 -94 0
17 -94 0
26 -94 0
94 1 2 -17 -26  0
-94 91 0
1 -95 0
3 -95 0
4 -95 0
-26 -95 0
95 -1 -3 -4 26  0
-95 91 0
2 -96 0
3 -96 0
4 -96 0
-26 -96 0
96 -2 -3 -4 26  0
-96 91 0
-1 -97 0
-2 -97 0
8 -97 0
-26 -97 0
97 1 2 -8 26  0
-97 91 0
-3 -98 0
-5 -98 0
-6 -98 0
16 -98 0
26 -98 0
98 3 5 6 -16 -26  0
-98 91 0
1 -99 0
2 -99 0
-3 -99 0
17 -99 0
26 -99 0
99 -1 -2 3 -17 -26  0
-99 91 0
-3 -100 0
-5 -100 0
-6 -100 0
7 -100 0
-26 -100 0
100 3 5 6 -7 26  0
-100 91 0
1 -101 0
2 -101 0
-3 -101 0
8 -101 0
-26 -101 0
101 -1 -2 3 -8 26  0
-101 91 0
1 -102 0
3 -102 0
15 -102 0
-43 -102 0
48 -102 0
102 -1 -3 -15 43 -48  0
-102 91 0
2 -103 0
3 -103 0
15 -103 0
-43 -103 0
48 -103 0
103 -2 -3 -15 43 -48  0
-103 91 0
-1 -104 0
-2 -104 0
17 -104 0
-43 -104 0
48 -104 0
104 1 2 -17 43 -48  0
-104 91 0
1 -105 0
3 -105 0
4 -105 0
43 -105 0
-48 -105 0
105 -1 -3 -4 -43 48  0
-105 91 0
2 -106 0
3 -106 0
4 -106 0
43 -106 0
-48 -106 0
106 -2 -3 -4 -43 48  0
-106 91 0
-1 -107 0
-2 -107 0
8 -107 0
43 -107 0
-48 -107 0
107 1 2 -8 -43 48  0
-107 91 0
1 -108 0
3 -108 0
15 -108 0
-42 -108 0
-43 -108 0
47 -108 0
108 -1 -3 -15 42 43 -47  0
-108 91 0
2 -109 0
3 -109 0
15 -109 0
-42 -109 0
-43 -109 0
47 -109 0
109 -2 -3 -15 42 43 -47  0
-109 91 0
-1 -110 0
-2 -110 0
17 -110 0
-42 -110 0
-43 -110 0
47 -110 0
110 1 2 -17 42 43 -47  0
-110 91 0
1 -111 0
3 -111 0
4 -111 0
42 -111 0
43 -111 0
-47 -111 0
111 -1 -3 -4 -42 -43 47  0
-111 91 0
2 -112 0
3 -112 0
4 -112 0
42 -112 0
43 -112 0
-47 -112 0
112 -2 -3 -4 -42 -43 47  0
-112 91 0
-1 -113 0
-2 -113 0
8 -113 0
42 -113 0
43 -113 0
-47 -113 0
113 1 2 -8 -42 -43 47  0
-113 91 0
-3 -114 0
-5 -114 0
-6 -114 0
16 -114 0
-43 -114 0
48 -114 0
114 3 5 6 -16 43 -48  0
-114 91 0
1 -115 0
2 -115 0
-3 -115 0
17 -115 0
-43 -115 0
48 -115 0
115 -1 -2 3 -17 43 -48  0
-115 91 0
-3 -116 0
-5 -116 0
-6 -116 0
7 -116 0
43 -116 0
-48 -116 0
116 3 5 6 -7 -43 48  0
-116 91 0
1 -117 0
2 -117 0
-3 -117 0
8 -117 0
43 -117 0
-48 -117 0
117 -1 -2 3 -8 -43 48  0
-117 91 0
1 -118 0
3 -118 0
4 -118 0
42 -118 0
43 -118 0
-45 -118 0
46 -118 0
118 -1 -3 -4 -42 -43 45 -46  0
-118 91 0
2 -119 0
3 -119 0
4 -119 0
42 -119 0
43 -119 0
-45 -119 0
46 -119 0
119 -2 -3 -4 -42 -43 45 -46  0
-119 91 0
-1 -120 0
-2 -120 0
8 -120 0
42 -120 0
43 -120 0
-45 -120 0
46 -120 0
120 1 2 -8 -42 -43 45 -46  0
-120 91 0
1 -121 0
3 -121 0
15 -121 0
-42 -121 0
-43 -121 0
45 -121 0
-46 -121 0
121 -1 -3 -15 42 43 -45 46  0
-121 91 0
2 -122 0
3 -122 0
15 -122 0
-42 -122 0
-43 -122 0
45 -122 0
-46 -122 0
122 -2 -3 -15 42 43 -45 46  0
-122 91 0
-1 -123 0
-2 -123 0
17 -123 0
-42 -123 0
-43 -123 0
45 -123 0
-46 -123 0
123 1 2 -17 42 43 -45 46  0
-123 91 0
-3 -124 0
-5 -124 0
-6 -124 0
16 -124 0
-42 -124 0
-43 -124 0
47 -124 0
124 3 5 6 -16 42 43 -47  0
-124 91 0
1 -125 0
2 -125 0
-3 -125 0
17 -125 0
-42 -125 0
-43 -125 0
47 -125 0
125 -1 -2 3 -17 42 43 -47  0
-125 91 0
-3 -126 0
-5 -126 0
-6 -126 0
7 -126 0
42 -126 0
43 -126 0
-47 -126 0
126 3 5 6 -7 -42 -43 47  0
-126 91 0
1 -127 0
2 -127 0
-3 -127 0
8 -127 0
42 -127 0
43 -127 0
-47 -127 0
127 -1 -2 3 -8 -42 -43 47  0
-127 91 0
-3 -128 0
-5 -128 0
-6 -128 0
7 -128 0
42 -128 0
43 -128 0
-45 -128 0
46 -128 0
128 3 5 6 -7 -42 -43 45 -46  0
-128 91 0
1 -129 0
2 -129 0
-3 -129 0
8 -129 0
42 -129 0
43 -129 0
-45 -129 0
46 -129 0
129 -1 -2 3 -8 -42 -43 45 -46  0
-129 91 0
-3 -130 0
-5 -130 0
-6 -130 0
16 -130 0
-42 -130 0
-43 -130 0
45 -130 0
-46 -130 0
130 3 5 6 -16 42 43 -45 46  0
-130 91 0
1 -131 0
2 -131 0
-3 -131 0
17 -131 0
-42 -131 0
-43 -131 0
45 -131 0
-46 -131 0
131 -1 -2 3 -17 42 43 -45 46  0
-131 91 0
-91 92 93 94 95 96 97 98 99 100 101 102 103 104 105 106 107 108 109 110 111 112 113 114 115 116 117 118 119 120 121 122 123 124 125 126 127 128 129 130 131  0
1 -133 0
3 -133 0
4 -133 0
24 -133 0
25 -133 0
27 -133 0
28 -133 0
29 -133 0
30 -133 0
133 -1 -3 -4 -24 -25 -27 -28 -29 -30  0
-133 132 0
2 -134 0
3 -134 0
4 -134 0
24 -134 0
25 -134 0
27 -134 0
28 -134 0
29 -134 0
30 -134 0
134 -2 -3 -4 -24 -25 -27 -28 -29 -30  0
-134 132 0
-1 -135 0
-2 -135 0
8 -135 0
24 -135 0
25 -135 0
27 -135 0
28 -135 0
29 -135 0
30 -135 0
135 1 2 -8 -24 -25 -27 -28 -29 -30  0
-135 132 0
-3 -136 0
-5 -136 0
-6 -136 0
7 -136 0
24 -136 0
25 -136 0
27 -136 0
28 -136 0
29 -136 0
30 -136 0
136 3 5 6 -7 -24 -25 -27 -28 -29 -30  0
-136 132 0
1 -137 0
2 -137 0
-3 -137 0
8 -137 0
24 -137 0
25 -137 0
27 -137 0
28 -137 0
29 -137 0
30 -137 0
137 -1 -2 3 -8 -24 -25 -27 -28 -29 -30  0
-137 132 0
-132 133 134 135 136 137  0
1 -139 0
3 -139 0
15 -139 0
-24 -139 0
-25 -139 0
-27 -139 0
-28 -139 0
-29 -139 0
-30 -139 0
139 -1 -3 -15 24 25 27 28 29 30  0
-139 138 0
2 -140 0
3 -140 0
15 -140 0
-24 -140 0
-25 -140 0
-27 -140 0
-28 -140 0
-29 -140 0
-30 -140 0
140 -2 -3 -15 24 25 27 28 29 30  0
-140 138 0
-1 -141 0
-2 -141 0
17 -141 0
-24 -141 0
-25 -141 0
-27 -141 0
-28 -141 0
-29 -141 0
-30 -141 0
141 1 2 -17 24 25 27 28 29 30  0
-141 138 0
-3 -142 0
-5 -142 0
-6 -142 0
16 -142 0
-24 -142 0
-25 -142 0
-27 -142 0
-28 -142 0
-29 -142 0
-30 -142 0
142 3 5 6 -16 24 25 27 28 29 30  0
-142 138 0
1 -143 0
2 -143 0
-3 -143 0
17 -143 0
-24 -143 0
-25 -143 0
-27 -143 0
-28 -143 0
-29 -143 0
-30 -143 0
143 -1 -2 3 -17 24 25 27 28 29 30  0
-143 138 0
-138 139 140 141 142 143  0
